Minimize
20 t1 + 90 t2 + 400 t3 + 70 t4 + 30 t5
Subject To
t1 + t2 + t5 >= 30.5
5 t3 + t4 >= 30
3 t1 + 10 t3 <= 120
3 t2 + 2 t4 + t5 <= 48
Bounds
t1 >= 0
t2 >= 0
t3 >= 0
t4 >= 0
t5 >= 0
Integer t1 t2 t3
End